Route #1: 1 42 54 21 18 19 24 2 1
Route #2: 1 53 55 56 35 52 44 1
Route #3: 1 28 43 6 66 9 34 15 40 5 1
Route #4: 1 12 32 46 58 39 20 36 23 57 1
Route #5: 1 8 14 51 29 62 48 49 26 1
Route #6: 1 31 65 45 60 64 47 27 1
Route #7: 1 33 59 41 30 4 16 61 22 37 1
Route #8: 1 63 17 38 11 3 7 1
Route #9: 1 50 13 25 10 1
cost 1482
